objective value:                                   -3
t_n_17                                              1 	(obj:-1)
t_n_1464                                            1 	(obj:-1)
t_n_1644                                            1 	(obj:-1)
